words_hard_train/4851.qaiger
aag 78 16 0 1 62
2
4
8
16
24
28
44
52
60
64
72
76
104
112
128
130
157
6 2 4
10 7 9
12 6 8
14 11 13
18 15 16
20 14 17
22 19 21
26 25 2
30 5 29
32 4 28
34 31 33
36 26 34
38 24 3
40 35 38
42 37 41
46 13 45
48 12 44
50 47 49
54 50 52
56 43 55
58 22 56
62 48 60
66 63 65
68 62 64
70 67 69
74 53 73
78 74 77
80 75 76
82 79 81
84 71 82
86 58 85
88 49 61
90 89 63
92 91 73
94 90 72
96 93 95
98 51 96
100 86 99
102 97 53
106 69 105
108 68 104
110 107 109
114 81 113
116 80 112
118 115 117
120 111 118
122 103 121
124 100 122
126 70 83
132 128 131
134 129 130
136 133 135
138 137 116
140 136 117
142 139 141
144 143 109
146 142 108
148 145 147
150 110 119
152 148 151
154 127 152
156 124 154
i0 2 y2[0]
i1 2 y2[1]
i2 2 y2[2]
i3 1 x2[5]
i4 1 x2[7]
i5 1 x2[6]
i6 2 y2[3]
i7 1 x2[4]
i8 2 y2[4]
i9 2 y2[5]
i10 1 x2[3]
i11 1 x2[2]
i12 2 y2[6]
i13 1 x2[1]
i14 2 y2[7]
i15 1 x2[0]
o0 bool[0]
c
simplified
  !=
    add
      -104
      reverse
        1 x2
    add
      1
      2 y2
