words_hard_train/4851.qaiger.qdimacs
p cnf 78 187
a 65 36 38 8 12 14 56 26 0
e 1 2 3 4 5 6 7 9 10 11 13 15 16 17 18 19 20 21 22 23 24 25 27 28 29 30 31 32 33 34 35 37 39 40 41 42 43 44 45 46 47 48 49 50 51 52 53 54 55 57 58 59 60 61 62 63 64 66 67 68 69 70 71 72 73 74 75 76 77 78 0
-1 -2 3 0
1 -3 0
2 -3 0
3 4 5 0
-3 -5 0
-4 -5 0
-3 -4 6 0
3 -6 0
4 -6 0
5 6 7 0
-5 -7 0
-6 -7 0
7 -8 9 0
-7 -9 0
8 -9 0
-7 8 10 0
7 -10 0
-8 -10 0
9 10 11 0
-9 -11 0
-10 -11 0
12 -1 13 0
-12 -13 0
1 -13 0
2 14 15 0
-2 -15 0
-14 -15 0
-2 -14 16 0
2 -16 0
14 -16 0
15 16 17 0
-15 -17 0
-16 -17 0
-13 -17 18 0
13 -18 0
17 -18 0
-12 1 19 0
12 -19 0
-1 -19 0
17 -19 20 0
-17 -20 0
19 -20 0
18 20 21 0
-18 -21 0
-20 -21 0
6 22 23 0
-6 -23 0
-22 -23 0
-6 -22 24 0
6 -24 0
22 -24 0
23 24 25 0
-23 -25 0
-24 -25 0
-25 -26 27 0
25 -27 0
26 -27 0
21 27 28 0
-21 -28 0
-27 -28 0
-11 -28 29 0
11 -29 0
28 -29 0
-24 -30 31 0
24 -31 0
30 -31 0
31 32 33 0
-31 -33 0
-32 -33 0
-31 -32 34 0
31 -34 0
32 -34 0
33 34 35 0
-33 -35 0
-34 -35 0
26 36 37 0
-26 -37 0
-36 -37 0
-37 38 39 0
37 -39 0
-38 -39 0
37 -38 40 0
-37 -40 0
38 -40 0
39 40 41 0
-39 -41 0
-40 -41 0
35 -41 42 0
-35 -42 0
41 -42 0
-29 42 43 0
29 -43 0
-42 -43 0
24 30 44 0
-24 -44 0
-30 -44 0
44 31 45 0
-44 -45 0
-31 -45 0
45 36 46 0
-45 -46 0
-36 -46 0
-45 -36 47 0
45 -47 0
36 -47 0
46 47 48 0
-46 -48 0
-47 -48 0
25 -48 49 0
-25 -49 0
48 -49 0
-43 49 50 0
43 -50 0
-49 -50 0
48 26 51 0
-48 -51 0
-26 -51 0
34 52 53 0
-34 -53 0
-52 -53 0
-34 -52 54 0
34 -54 0
52 -54 0
53 54 55 0
-53 -55 0
-54 -55 0
40 56 57 0
-40 -57 0
-56 -57 0
-40 -56 58 0
40 -58 0
56 -58 0
57 58 59 0
-57 -59 0
-58 -59 0
55 -59 60 0
-55 -60 0
59 -60 0
51 60 61 0
-51 -61 0
-60 -61 0
-50 -61 62 0
50 -62 0
61 -62 0
-35 41 63 0
35 -63 0
-41 -63 0
-64 65 66 0
64 -66 0
-65 -66 0
64 -65 67 0
-64 -67 0
65 -67 0
66 67 68 0
-66 -68 0
-67 -68 0
68 -58 69 0
-68 -69 0
58 -69 0
-68 58 70 0
68 -70 0
-58 -70 0
69 70 71 0
-69 -71 0
-70 -71 0
71 54 72 0
-71 -72 0
-54 -72 0
-71 -54 73 0
71 -73 0
54 -73 0
72 73 74 0
-72 -74 0
-73 -74 0
-55 59 75 0
55 -75 0
-59 -75 0
-74 75 76 0
74 -76 0
-75 -76 0
63 -76 77 0
-63 -77 0
76 -77 0
-62 -77 78 0
62 -78 0
77 -78 0
-78 0
